192
0 9 120 185 97 32 95 93 106 132 
182 49 64 27 48 158 40 114 113 118 
139 174 7 73 4 81 177 41 52 31 
190 125 101 33 12 62 172 16 94 25 
100 67 151 183 15 104 181 110 10 159 
46 56 170 112 135 147 188 36 89 28 
115 87 55 145 153 3 83 57 92 134 
165 111 24 90 142 43 103 130 119 131 
5 178 167 116 157 59 2 68 47 138 
121 88 75 191 35 164 60 20 137 128 
160 149 63 21 11 129 144 127 140 179 
74 187 123 143 76 78 8 42 82 1 
107 13 34 122 161 173 29 23 44 53 
105 30 85 72 86 126 186 189 152 37 
39 117 22 108 133 77 17 66 96 155 
124 171 70 19 14 79 156 175 38 141 
80 109 61 50 71 176 69 58 184 150 
51 65 54 166 162 146 6 84 99 26 
169 91 98 180 102 136 45 18 154 148 
168 163 
